% demand
num_movements = 37;
loading_factor = [800, 1200, 900, 950, 1850, 1750, 850, 1400, 800, 1600, 1500, 1800, 1250, 1350, 1550, 1600, 1650, 950, 850, 1400, 1700, 1900, 1600, 1300, 1550, 1150, 900, 850, 800, 1550, 1800, 1700, 1050, 1350, 1600, 1150, 1750];
pickup_time = [0, 0, 0, 1, 2, 2, 3, 3, 4, 4, 4, 4, 4, 5, 5, 5, 7, 8, 8, 8, 8, 8, 9, 9, 10, 10, 10, 10, 10, 10, 10, 10, 11, 11, 11, 11, 12];
delivery_time = [1, 1, 5, 3, 8, 3, 7, 4, 5, 10, 7, 5, 5, 10, 8, 8, 8, 9, 10, 9, 10, 10, 10, 10, 11, 13, 11, 13, 11, 13, 13, 11, 13, 12, 13, 13, 13];

% transporter definition
total_capacity = 11000;
num_decks = 4;
capacity = [3000, 3000, 1000, 4000];

% ways out of decks
num_ways_out = 2;
paths_out = array3d(decks, ways_out, decks, [
% ways out of deck d1
2, 4, 0, 0, 3, 4, 0, 0, 

% ways out of deck d2
4, 0, 0, 0, 0, 0, 0, 0,	

% ways out of deck d3
4, 0, 0, 0, 0, 0, 0, 0,	

% ways out of deck d4
0, 0, 0, 0,	0, 0, 0, 0,	

]);

